Instance name: /mnt/c/Users/ORG/CLionProjects/uMV-FSTSP/Murray_Chu_2015_test_data/FSTSP/FSTSP_10_customer_problems/20140810T123437v2

drone speed: 0.2 miles/minute
uav non-eligible customer: 10 
Printing number of nodes: 11

Gurobi Optimizer version 11.0.0 build v11.0.0rc2 (linux64 - "Ubuntu 22.04.3 LTS")

CPU model: 13th Gen Intel(R) Core(TM) i5-13500, instruction set [SSE2|AVX|AVX2]
Thread count: 10 physical cores, 20 logical processors, using up to 20 threads

Optimize a model with 44485 rows, 1957 columns and 1837894 nonzeros
Model fingerprint: 0x758e11a1
Variable types: 11 continuous, 1946 integer (1814 binary)
Coefficient statistics:
  Matrix range     [8e-01, 3e+01]
  Objective range  [8e-01, 2e+01]
  Bounds range     [1e+00, 1e+00]
  RHS range        [1e+00, 9e+00]
Found heuristic solution: objective 159.1525321
Presolve removed 34247 rows and 1149 columns
Presolve time: 2.93s
Presolved: 10238 rows, 808 columns, 303641 nonzeros
Variable types: 8 continuous, 800 integer (800 binary)
Found heuristic solution: objective 146.0361113
Root relaxation presolved: 10238 rows, 808 columns, 303641 nonzeros


Root relaxation: objective 5.048016e+01, 2697 iterations, 0.61 seconds (1.30 work units)

    Nodes    |    Current Node    |     Objective Bounds      |     Work
 Expl Unexpl |  Obj  Depth IntInf | Incumbent    BestBd   Gap | It/Node Time

     0     0   50.48016    0  144  146.03611   50.48016  65.4%     -    3s
H    0     0                     107.9214338   50.48016  53.2%     -    3s
H    0     0                      97.7725266   50.48016  48.4%     -    3s
H    0     0                      92.3122378   50.48016  45.3%     -    3s
H    0     0                      54.1840397   50.48016  6.84%     -    3s
     0     0   50.94441    0  161   54.18404   50.94441  5.98%     -    3s
     0     0   50.94441    0  112   54.18404   50.94441  5.98%     -    4s
     0     0   51.20551    0  124   54.18404   51.20551  5.50%     -    5s
     0     0   51.23489    0  139   54.18404   51.23489  5.44%     -    5s
     0     0   51.28446    0  137   54.18404   51.28446  5.35%     -    5s
     0     0   52.33804    0  144   54.18404   52.33804  3.41%     -    5s
     0     0   53.20677    0  192   54.18404   53.20677  1.80%     -    5s
     0     0   53.20677    0  192   54.18404   53.20677  1.80%     -    5s
     0     0   53.20677    0  185   54.18404   53.20677  1.80%     -    5s
     0     0   53.20677    0  187   54.18404   53.20677  1.80%     -    5s
H    0     0                      53.7932704   53.20818  1.09%     -    5s
     0     0   53.20818    0  181   53.79327   53.20818  1.09%     -    5s
     0     0   53.27122    0  185   53.79327   53.27122  0.97%     -    5s

Cutting planes:
  Gomory: 2
  Cover: 9
  Clique: 10
  MIR: 1
  Zero half: 15
  RLT: 50

Explored 1 nodes (4641 simplex iterations) in 5.93 seconds (9.01 work units)
Thread count was 20 (of 20 available processors)

Solution count 8: 53.7933 54.184 60.7884 ... 159.153

Optimal solution found (tolerance 1.00e-04)
Best objective 5.379327036642e+01, best bound 5.379327036642e+01, gap 0.0000%
Truck arcs: 
0 10 4.19835
1 11 7.81487
2 8 5.10923
3 1 3.93636
5 7 0.777831
6 5 0.955922
7 3 10.9841
8 6 5.60229
9 2 6.13892
10 9 7.2754
Theta:
Theta_4 = 1
Drone arcs:
0 4
4 2
Gamma:
gamma_4_0_10= 1
gamma_4_9_2= 1
gamma_4_10_9= 1
Sigma:
Sigma_1 = 0
Sigma_2 = 0
Sigma_3 = 0
Sigma_4 = 0
Sigma_5 = 0
Sigma_6 = 0
Sigma_7 = 0
Sigma_8 = 0
Sigma_9 = 0
Sigma_10 = 0
Sigma_11 = 0
middle of 4 sortie are: 9 10 
Objective: 53.7933
Number of sorties: 1
